unsat
(forall ((A (_ BitVec 20))
         (B (_ BitVec 20))
         (C (_ BitVec 20))
         (D (_ BitVec 20))
         (E (_ BitVec 20))
         (F (_ BitVec 20))
         (G (_ BitVec 20))
         (H (_ BitVec 20))
         (I (_ BitVec 20))
         (J (_ BitVec 20))
         (K (_ BitVec 20))
         (L (_ BitVec 20))
         (M (_ BitVec 20))
         (N (_ BitVec 20))
         (O (_ BitVec 20))
         (P (_ BitVec 20))
         (Q (_ BitVec 20))
         (R (_ BitVec 20))
         (S (_ BitVec 20))
         (T (_ BitVec 20))
         (U (_ BitVec 18))
         (V (_ BitVec 20))
         (W (_ BitVec 18))
         (X (_ BitVec 20))
         (Y (_ BitVec 20))
         (Z (_ BitVec 38))
         (A1 (_ BitVec 1))
         (B1 (_ BitVec 20))
         (C1 (_ BitVec 1))
         (D1 (_ BitVec 20))
         (E1 (_ BitVec 20))
         (F1 (_ BitVec 20))
         (G1 (_ BitVec 20))
         (H1 (_ BitVec 20))
         (I1 (_ BitVec 20))
         (J1 (_ BitVec 20))
         (K1 (_ BitVec 38))
         (L1 (_ BitVec 20))
         (M1 (_ BitVec 38))
         (N1 (_ BitVec 20))
         (O1 (_ BitVec 1))
         (P1 (_ BitVec 38))
         (Q1 (_ BitVec 1))
         (R1 (_ BitVec 1))
         (S1 (_ BitVec 20))
         (T1 (_ BitVec 20))
         (U1 (_ BitVec 20))
         (V1 (_ BitVec 20))
         (W1 (_ BitVec 14))
         (X1 (_ BitVec 20))
         (Y1 (_ BitVec 20))
         (Z1 (_ BitVec 20))
         (A2 (_ BitVec 1))
         (B2 (_ BitVec 22))
         (C2 (_ BitVec 20))
         (D2 (_ BitVec 20))
         (E2 (_ BitVec 20))
         (F2 (_ BitVec 20))
         (G2 (_ BitVec 1))
         (H2 (_ BitVec 1))
         (I2 (_ BitVec 1))
         (J2 (_ BitVec 38))
         (K2 (_ BitVec 14))
         (L2 (_ BitVec 22))
         (M2 (_ BitVec 14))
         (N2 (_ BitVec 22))
         (O2 (_ BitVec 14))
         (P2 (_ BitVec 22))
         (Q2 (_ BitVec 22))
         (R2 (_ BitVec 20))
         (S2 (_ BitVec 16))
         (T2 (_ BitVec 1))
         (U2 (_ BitVec 38))
         (V2 (_ BitVec 30))
         (W2 (_ BitVec 30))
         (X2 (_ BitVec 20))
         (Y2 (_ BitVec 20))
         (Z2 (_ BitVec 20))
         (A3 (_ BitVec 20))
         (B3 (_ BitVec 20))
         (C3 (_ BitVec 20))
         (D3 (_ BitVec 20))
         (E3 (_ BitVec 16))
         (F3 (_ BitVec 20))
         (G3 (_ BitVec 18))
         (H3 (_ BitVec 30))
         (I3 (_ BitVec 1))
         (J3 (_ BitVec 38))
         (K3 (_ BitVec 30)))
  (! (let ((a!1 (= ((_ extract 29 2)
                     (bvadd ((_ extract 37 8) Z) (concat #x00 P2)))
                   #x0000000))
           (a!2 (= ((_ extract 31 4)
                     (bvadd (concat #b0000000000 N2) ((_ extract 37 6) K1)))
                   #x0000000))
           (a!3 (or ((_ bit2bool 0) L)
                    ((_ bit2bool 0) U1)
                    (not (= ((_ extract 0 0) J1) #b1))))
           (a!4 (= ((_ extract 33 6)
                     (bvadd (concat #x000 L2) ((_ extract 37 4) P1)))
                   #x0000000))
           (a!5 ((_ extract 22 8)
                  (bvadd (concat #b000 ((_ extract 21 2) B2)) (concat #b0 Q2))))
           (a!6 (or (not (= ((_ extract 0 0) X1) #b1))
                    (= ((_ extract 0 0) X) #b1)))
           (a!7 (or ((_ bit2bool 0) C2) (not (= ((_ extract 0 0) D1) #b1))))
           (a!8 (or (not (= ((_ extract 0 0) Y1) #b1))
                    (= ((_ extract 0 0) O) #b1))))
     (let ((a!9 (and (or (not ((_ bit2bool 0) I2)) (not (= Q1 #b0)))
                     (not ((_ bit2bool 3) M2))
                     (not ((_ bit2bool 2) M2))
                     (not ((_ bit2bool 1) M2))
                     (not ((_ bit2bool 0) M2))
                     (not ((_ bit2bool 1) O2))
                     (not ((_ bit2bool 0) O2))
                     (not ((_ bit2bool 5) K2))
                     (not ((_ bit2bool 4) K2))
                     (not ((_ bit2bool 3) K2))
                     (not ((_ bit2bool 2) K2))
                     (not ((_ bit2bool 1) K2))
                     (not ((_ bit2bool 0) K2))
                     (= ((_ extract 37 10) M1) #x0000000)
                     (not (= ((_ extract 17 17) W) #b1))
                     a!1
                     a!2
                     (or ((_ bit2bool 1) G3)
                         ((_ bit2bool 2) G3)
                         (not ((_ bit2bool 2) U))
                         (not (= W #b000000000000000001)))
                     (not (= ((_ extract 17 17) G3) #b1))
                     (not (= ((_ extract 17 17) U) #b1))
                     (or ((_ bit2bool 1) U1)
                         ((_ bit2bool 1) L)
                         ((_ bit2bool 0) U1)
                         ((_ bit2bool 2) U1)
                         (not ((_ bit2bool 1) J1)))
                     a!3
                     (or ((_ bit2bool 1) W)
                         ((_ bit2bool 2) W)
                         ((_ bit2bool 1) U)
                         ((_ bit2bool 2) U)
                         (not ((_ bit2bool 2) G3)))
                     a!4
                     (or ((_ bit2bool 0) W)
                         ((_ bit2bool 1) W)
                         ((_ bit2bool 2) W)
                         ((_ bit2bool 1) U)
                         (not ((_ bit2bool 1) G3)))
                     (= a!5 #b000000000000000)
                     a!6
                     a!7
                     a!8
                     (= ((_ extract 37 10) K1) #x0000000))))
       (= (INV!slice!1 A
                       B
                       C
                       D
                       E
                       F
                       G
                       H
                       I
                       J
                       K
                       L
                       M
                       N
                       O
                       P
                       Q
                       R
                       S
                       T
                       U
                       V
                       W
                       X
                       Y
                       Z
                       A1
                       B1
                       C1
                       D1
                       E1
                       F1
                       G1
                       H1
                       I1
                       J1
                       K1
                       L1
                       M1
                       N1
                       O1
                       P1
                       Q1
                       R1
                       S1
                       T1
                       U1
                       V1
                       W1
                       X1
                       Y1
                       Z1
                       A2
                       B2
                       C2
                       D2
                       E2
                       F2
                       G2
                       H2
                       I2
                       J2
                       K2
                       L2
                       M2
                       N2
                       O2
                       P2
                       Q2
                       R2
                       S2
                       T2
                       U2
                       V2
                       W2
                       X2
                       Y2
                       Z2
                       A3
                       B3
                       C3
                       D3
                       E3
                       F3
                       G3
                       H3
                       I3
                       J3
                       K3)
          a!9)))
     :weight 0))
